r = [
0,143,38,150,14,105,123,76,29,49,158,55,168,158,99,52,1,24,47,149,146,99,60,70,149,101,0
];
p = [
0,15,23,4,8,1,4,2,19,26,4,9,10,17,6,25,18,24,27,27,7,7,6,3,28,30,0
];
e = [
0,8,4,19,4,20,4,1,20,7,11,19,9,18,6,13,5,5,2,19,5,4,12,2,18,17,0
];
d = [
0,316,219,311,176,284,298,256,216,230,318,216,348,334,258,226,165,186,221,317,319,287,238,239,307,271,349
];
d_bar = [
0,318,221,312,177,285,299,257,218,233,319,217,349,336,259,229,167,188,224,320,320,288,239,240,310,274,349
];
w = [
0,4,2,19,4,20,4,1,10,2.333333333,11,19,9,9,6,4.333333333,2.5,2.5,0.666666667,6.333333333,5,4,12,2,6,5.666666667,0
];
